row=6;
column=6;
Board=[|5,6,2,3,4,1|2,4,6,1,5,3|6,5,3,2,1,4|1,2,4,5,3,6|3,1,5,4,6,2|4,3,1,6,2,5|];
horizontal=[|0,1,-1,0,1|0,0,1,0,1|1,1,1,1,0|0,0,0,1,0|1,0,1,0,1|1,1,0,1,0|];
vertical=[|1,1,0,1,0,0|0,0,1,0,1,0|1,1,0,0,0,0|0,1,0,1,0,1|0,0,1,0,1,0|];
